12 32 9 10
15 14 3 12 16 14 10 4 11 10 8 12 20 14 1 20 13 11 2 18 11 5 1 18 16 8 11 18 15 2 20 1 
5.39 10.28 4.88 2.8 9 4.08 7.88 12.78 15.56 8.59 14.28 12.89 2.92 3.43 0.72 9.73 7.66 13.12 12.79 0.47 12.12 8.18 11.25 2.85 1.82 9.99 4.48 4.34 4.07 14.67 15.14 7.38 
0.25 9.2 13.14 13.43 10.02 15.41 15.04 8.83 15.69 0.7 6.84 0.67 14.96 0.31 12.75 4.89 0.23 9.2 4.58 8.12 3.82 8.4 3.21 14.54 8.41 11.07 1.87 9.55 9.65 4.77 15.47 2.1 
9.02 2.41 7.06 10.61 9.55 0.57 8.48 1.86 1.02 11.64 7.25 15.45 3.84 4.05 15.71 3.91 9.12 4.99 15.48 3.6 13.03 2.11 4.96 11.73 9.84 5.25 6.56 13.58 7.77 0.37 12.94 9.53 
11.65 8.72 4.14 6.69 4.44 11.74 10.67 2.47 14.1 11.17 8.42 0.33 2.64 0.49 6.87 0.71 12.21 12.38 8.31 14.63 0.42 10.31 0.98 7.59 13.39 15.8 14.01 13.71 11.01 15.62 11.8 15.34 
9.37 7.09 8.76 11.86 14.17 10.19 11.34 0.8 13.03 12.91 6.2 2.63 13.93 15.45 3 2.4 10.53 14.56 14.05 5.17 10.09 4 11.65 12.22 0.27 3.82 15.66 10.82 9.83 10.35 6.61 6.33 
3.68 10.2 1.45 7.81 15.49 4 12.25 4.17 6.86 10.31 11.07 10.11 8.74 0.37 13.26 8.26 15.2 2.99 1.83 14.68 10.91 3.49 3.14 0.72 8.35 3.37 4.91 15.98 4.74 3.37 4.55 4.4 
7.36 1.71 4.83 0.11 4.62 5.04 9.42 6.93 15.26 13.24 2.54 13.18 1.36 2.1 15.46 15.43 12.65 12.98 4.72 14.67 0.42 2.17 4.33 1.01 7.16 0.01 7.9 5.78 5.42 3.07 1.02 9.37 
14.78 11.56 14.51 2.56 5.98 0.28 10.89 0.61 0.02 3.48 13.66 2.21 3.4 9.63 10.8 12.91 7.7 6.58 6.13 1.43 7.41 6.21 12.95 13.42 13.94 14.23 12.24 13.64 14.32 6.32 0.29 11.41 
6.53 8.74 11.47 0.68 15.66 4.15 12.31 5.2 2.05 6.48 14.07 0.85 12.04 2.92 0.32 10.91 12.76 1.39 5.93 5.14 14.01 4.58 11.39 11.53 15.21 15.34 12.64 3.19 3.62 14.49 1.13 15.61 
8 8 8 8 8 8 8 8 8 8 8 8 8 8 8 8 8 8 8 8 8 8 8 8 8 8 8 8 8 8 8 8 
2.73 2.91 4.81 13.6 15.56 6.64 8.42 6.31 4.55 0.69 7.96 7.85 7.68 11.1 2.28 10.82 13.04 1.42 8.93 0.4 8.39 14.34 9.12 7.57 1.7 3.26 15.36 8.81 4.92 3.57 3.54 2.07 
6.6 4.26 10.01 11.67 13.6 9.62 11.83 0.6 0.95 14.81 4.08 15.49 4.52 8.81 7.77 8.91 14.1 9.36 14.92 14.4 3.79 7.91 14.24 5.42 0.16 8.78 1.98 0.33 4.53 8.48 13.53 12.1 
1 1 1 1 1 1 1 1 1 1 1 1 1 1 1 1 1 1 1 1 1 1 1 1 1 1 1 1 1 1 1 1 
1 1 1 1 1 1 1 1 1 1 1 1 1 1 1 1 1 1 1 1 1 1 1 1 1 1 1 1 1 1 1 1 
1 1 1 1 1 1 1 1 1 1 1 1 1 1 1 1 1 1 1 1 1 1 1 1 1 1 1 1 1 1 1 1 
1 1 1 1 1 1 1 1 1 1 1 1 1 1 1 1 1 1 1 1 1 1 1 1 1 1 1 1 1 1 1 1 
1 1 1 1 1 1 1 1 1 1 1 1 1 1 1 1 1 1 1 1 1 1 1 1 1 1 1 1 1 1 1 1 
1 1 1 1 1 1 1 1 1 1 1 1 1 1 1 1 1 1 1 1 1 1 1 1 1 1 1 1 1 1 1 1 
1 1 1 1 1 1 1 1 1 1 1 1 1 1 1 1 1 1 1 1 1 1 1 1 1 1 1 1 1 1 1 1 
1 1 1 1 1 1 1 1 1 1 1 1 1 1 1 1 1 1 1 1 1 1 1 1 1 1 1 1 1 1 1 1 
1 1 1 1 1 1 1 1 1 1 1 1 1 1 1 1 1 1 1 1 1 1 1 1 1 1 1 1 1 1 1 1 
1 1 1 1 1 1 1 1 1 1 1 1 1 1 1 1 1 1 1 1 1 1 1 1 1 1 1 1 1 1 1 1 
1 1 1 1 1 1 1 1 1 1 1 1 1 1 1 1 1 1 1 1 1 1 1 1 1 1 1 1 1 1 1 1 
1 1 1 1 1 1 1 1 1 1 1 1 1 1 1 1 1 1 1 1 1 1 1 1 1 1 1 1 1 1 1 1 
0.01 0.01 0.01 0.01 0.01 0.01 0.01 0.01 0.01 0.01 0.01 0.01 0.01 0.01 0.01 0.01 0.01 0.01 0.01 0.01 0.01 0.01 0.01 0.01 0.01 0.01 0.01 0.01 0.01 0.01 0.01 0.01 
0.02 0.02 0.02 0.02 0.02 0.02 0.02 0.02 0.02 0.02 0.02 0.02 0.02 0.02 0.02 0.02 0.02 0.02 0.02 0.02 0.02 0.02 0.02 0.02 0.02 0.02 0.02 0.02 0.02 0.02 0.02 0.02 
0.03 0.03 0.03 0.03 0.03 0.03 0.03 0.03 0.03 0.03 0.03 0.03 0.03 0.03 0.03 0.03 0.03 0.03 0.03 0.03 0.03 0.03 0.03 0.03 0.03 0.03 0.03 0.03 0.03 0.03 0.03 0.03 
0.04 0.04 0.04 0.04 0.04 0.04 0.04 0.04 0.04 0.04 0.04 0.04 0.04 0.04 0.04 0.04 0.04 0.04 0.04 0.04 0.04 0.04 0.04 0.04 0.04 0.04 0.04 0.04 0.04 0.04 0.04 0.04 
0.05 0.05 0.05 0.05 0.05 0.05 0.05 0.05 0.05 0.05 0.05 0.05 0.05 0.05 0.05 0.05 0.05 0.05 0.05 0.05 0.05 0.05 0.05 0.05 0.05 0.05 0.05 0.05 0.05 0.05 0.05 0.05 
0.06 0.06 0.06 0.06 0.06 0.06 0.06 0.06 0.06 0.06 0.06 0.06 0.06 0.06 0.06 0.06 0.06 0.06 0.06 0.06 0.06 0.06 0.06 0.06 0.06 0.06 0.06 0.06 0.06 0.06 0.06 0.06 
0.07 0.07 0.07 0.07 0.07 0.07 0.07 0.07 0.07 0.07 0.07 0.07 0.07 0.07 0.07 0.07 0.07 0.07 0.07 0.07 0.07 0.07 0.07 0.07 0.07 0.07 0.07 0.07 0.07 0.07 0.07 0.07 
0.08 0.08 0.08 0.08 0.08 0.08 0.08 0.08 0.08 0.08 0.08 0.08 0.08 0.08 0.08 0.08 0.08 0.08 0.08 0.08 0.08 0.08 0.08 0.08 0.08 0.08 0.08 0.08 0.08 0.08 0.08 0.08 
0.09 0.09 0.09 0.09 0.09 0.09 0.09 0.09 0.09 0.09 0.09 0.09 0.09 0.09 0.09 0.09 0.09 0.09 0.09 0.09 0.09 0.09 0.09 0.09 0.09 0.09 0.09 0.09 0.09 0.09 0.09 0.09 
0.1 0.1 0.1 0.1 0.1 0.1 0.1 0.1 0.1 0.1 0.1 0.1 0.1 0.1 0.1 0.1 0.1 0.1 0.1 0.1 0.1 0.1 0.1 0.1 0.1 0.1 0.1 0.1 0.1 0.1 0.1 0.1 
0.5 0.5 0.5 0.5 0.5 0.5 0.5 0.5 0.5 0.5 0.5 0.5 0.5 0.5 0.5 0.5 0.5 0.5 0.5 0.5 0.5 0.5 0.5 0.5 0.5 0.5 0.5 0.5 0.5 0.5 0.5 0.5 
1 1 1 1 1 1 1 1 1 1 1 1 1 1 1 1 1 1 1 1 1 1 1 1 1 1 1 1 1 1 1 1 
